32	0

0	6	2	4	8	3	6	5
10	3	10	11	14
4	2	7	9
9	3	10	11	14
1	2	7	9
4	2	7	9
9	1	10
9	3	10	11	14
6	3	10	11	14
2	3	12	13	16
5	3	12	13	16
10	1	17
2	4	15	17	19	20
8	4	15	17	19	20
8	6	18	21	22	23	24	25
5	3	17	19	20
2	6	18	21	22	23	24	25
9	4	27	28	29	30
10	1	21
9	4	21	22	23	25
4	3	26	28	29
7	4	27	28	29	30
5	3	26	28	29
7	3	26	28	29
3	3	26	28	29
3	2	27	30
8	1	32
6	1	32
5	1	31
4	1	31
4	1	32
0	0
